
  32    4
  10   10   10   10

   0   0   0   0   0  18 2 3 4 5 6 7 8 9 10 11 14 25 26 27 28 29 30 31 
   8   1   1   1   0   5 20 19 17 15 12 
   2   0   5   6   1   5 22 20 18 17 12 
   5   5   0   3   5   3 20 19 12 
   3   0   1   3   6   3 24 23 15 
   9   3   3   0   3   3 21 19 15 
   6   4   0   3   4   2 23 13 
   2   2   8   3   0   2 22 13 
   5   4   0   4   5   2 21 18 
   7   3   4   4   0   2 18 16 
   1   0   2   3   4   2 17 15 
  10  10   0   6   4   1 16 
   5   2   0   2   7   1 15 
   1   2   3   0   3   1 15 
   9   2   5   0   4   1 32
   3   6   0   6   3   1 32
   7   5   2   0   4   1 32
  10   3   8   0   2   1 32
   5   5   6   0   2   1 32
   2   5   3   4   0   1 32
   3   2   6   6   0   1 32
   9   4   5   3   0   1 32
   8   0   2   2   4   1 32
   6   4   0   2   2   1 32
   6   3   4   0   3   1 32
   3   0   3   8   6   1 32
   3   8   3   0   7   1 32
   7   5   4   5   0   1 32
   4   0   2   5   6   1 32
   3   3   6   0   3   1 32
   6   5   6   5   0   1 32
   0   0   0   0   0   0 
